c description: Random 8-CNF over 8 variables and 256 clauses
c generator: CNFgen (0.9.0)
c copyright: (C) 2012-2020 Massimo Lauria <massimo.lauria@uniroma1.it>
c url: https://massimolauria.net/cnfgen
c command line: cnfgen -o ./sat_database/no/medium/8/cnf.cnf randkcnf 8 8 256
c
p cnf 8 256
-1 2 -3 4 -5 6 -7 -8 0
1 -2 -3 -4 -5 6 7 8 0
1 2 3 4 5 6 -7 -8 0
1 -2 3 4 -5 -6 7 8 0
1 2 -3 -4 -5 -6 7 8 0
1 2 3 -4 5 -6 -7 8 0
-1 -2 3 4 5 -6 -7 -8 0
1 -2 -3 4 5 -6 7 -8 0
-1 -2 3 -4 -5 6 -7 -8 0
1 -2 -3 -4 5 6 -7 8 0
1 2 -3 -4 -5 6 7 -8 0
1 -2 3 4 5 6 7 -8 0
-1 2 3 4 -5 -6 -7 8 0
-1 2 3 -4 5 -6 -7 8 0
-1 -2 3 4 5 6 7 8 0
-1 -2 3 -4 5 6 -7 -8 0
-1 2 3 4 5 -6 -7 8 0
1 2 -3 4 5 6 7 -8 0
-1 2 3 4 -5 6 -7 8 0
-1 2 -3 -4 5 -6 -7 8 0
-1 2 3 4 -5 6 7 8 0
1 -2 -3 4 -5 -6 -7 8 0
-1 -2 -3 4 -5 -6 7 8 0
-1 -2 -3 -4 -5 -6 7 -8 0
1 2 -3 4 -5 6 -7 -8 0
1 -2 -3 4 5 6 -7 -8 0
1 2 -3 4 5 -6 -7 8 0
-1 2 3 -4 5 -6 -7 -8 0
1 -2 -3 -4 -5 6 -7 -8 0
1 2 3 -4 -5 6 7 -8 0
-1 2 -3 -4 5 6 -7 8 0
-1 2 -3 4 5 6 -7 8 0
-1 -2 3 -4 -5 -6 -7 8 0
1 2 -3 -4 5 6 -7 8 0
1 -2 3 -4 5 -6 7 -8 0
1 -2 -3 4 5 -6 -7 -8 0
-1 -2 -3 -4 -5 6 7 -8 0
1 2 -3 4 5 -6 7 -8 0
-1 -2 -3 -4 -5 -6 -7 8 0
1 -2 -3 4 -5 -6 7 8 0
-1 -2 3 4 -5 -6 -7 -8 0
1 -2 3 -4 -5 6 -7 -8 0
-1 -2 3 -4 5 -6 -7 -8 0
1 -2 -3 -4 5 6 7 -8 0
1 2 3 -4 5 6 -7 8 0
-1 2 -3 4 5 -6 7 8 0
-1 -2 -3 -4 5 6 7 -8 0
-1 2 3 4 -5 6 -7 -8 0
-1 -2 -3 -4 -5 6 7 8 0
1 2 3 -4 5 -6 7 8 0
1 -2 -3 4 5 -6 -7 8 0
-1 2 -3 -4 5 6 7 -8 0
-1 -2 3 -4 -5 6 -7 8 0
1 -2 3 4 -5 6 7 8 0
1 -2 3 4 5 -6 -7 -8 0
-1 -2 3 -4 -5 -6 -7 -8 0
-1 -2 3 -4 5 6 7 -8 0
1 -2 -3 4 5 -6 7 8 0
1 -2 -3 4 -5 6 -7 8 0
-1 2 3 4 -5 -6 7 8 0
1 -2 -3 -4 5 -6 -7 -8 0
1 2 -3 4 5 6 -7 -8 0
1 2 -3 -4 -5 -6 -7 -8 0
-1 -2 -3 4 -5 -6 -7 -8 0
-1 -2 3 -4 5 -6 7 8 0
1 2 3 4 5 -6 -7 -8 0
-1 -2 -3 4 5 -6 7 8 0
-1 2 -3 4 5 -6 -7 -8 0
-1 -2 -3 -4 5 6 7 8 0
1 -2 -3 4 -5 -6 -7 -8 0
1 -2 3 -4 -5 6 7 -8 0
1 2 -3 -4 -5 6 7 8 0
-1 -2 3 -4 -5 -6 7 -8 0
1 2 -3 4 -5 -6 7 -8 0
1 -2 -3 -4 5 -6 7 -8 0
1 2 3 4 -5 -6 -7 -8 0
1 -2 3 4 5 -6 7 -8 0
1 2 3 -4 5 6 -7 -8 0
-1 -2 3 4 5 -6 -7 8 0
-1 -2 -3 -4 5 -6 -7 -8 0
-1 2 3 -4 -5 -6 -7 -8 0
1 2 -3 4 -5 6 7 -8 0
1 2 -3 -4 5 -6 7 -8 0
-1 2 3 4 5 6 -7 8 0
1 2 3 -4 5 6 7 8 0
-1 2 -3 4 -5 6 7 -8 0
-1 2 -3 -4 -5 6 7 -8 0
1 2 -3 -4 5 6 7 8 0
1 2 -3 4 -5 -6 7 8 0
-1 -2 3 4 5 6 -7 -8 0
1 -2 3 -4 5 6 7 8 0
-1 2 -3 -4 5 -6 -7 -8 0
-1 2 -3 4 5 -6 7 -8 0
1 2 -3 4 5 6 7 8 0
1 2 3 -4 5 -6 -7 -8 0
1 2 -3 -4 5 -6 7 8 0
1 2 3 4 5 6 7 -8 0
1 2 -3 -4 -5 -6 7 -8 0
1 2 3 4 5 6 7 8 0
-1 -2 3 4 5 -6 7 8 0
1 -2 -3 -4 -5 -6 -7 8 0
-1 2 3 -4 5 6 -7 8 0
1 2 -3 -4 5 6 7 -8 0
-1 -2 3 -4 5 -6 7 -8 0
-1 2 -3 -4 -5 -6 -7 -8 0
1 -2 3 -4 -5 6 -7 8 0
-1 2 3 4 5 -6 7 8 0
-1 2 3 -4 5 6 7 -8 0
1 2 3 4 5 6 -7 8 0
-1 -2 3 -4 5 -6 -7 8 0
1 2 3 4 -5 6 -7 -8 0
1 2 3 -4 5 6 7 -8 0
-1 2 -3 4 -5 6 7 8 0
-1 2 -3 -4 -5 6 -7 -8 0
1 -2 -3 -4 5 -6 7 8 0
-1 -2 3 4 -5 -6 -7 8 0
1 -2 3 4 -5 -6 7 -8 0
1 2 -3 -4 -5 -6 -7 8 0
1 2 3 -4 -5 -6 -7 8 0
-1 2 3 4 -5 -6 -7 -8 0
-1 2 -3 -4 -5 -6 7 -8 0
1 -2 -3 4 5 6 -7 8 0
-1 2 3 4 5 6 -7 -8 0
1 -2 -3 -4 -5 6 -7 8 0
1 2 -3 -4 -5 6 -7 8 0
-1 -2 -3 4 5 -6 7 -8 0
-1 -2 -3 4 5 -6 -7 8 0
-1 -2 -3 -4 -5 6 -7 -8 0
1 -2 3 4 5 -6 -7 8 0
1 -2 -3 4 5 6 7 -8 0
1 2 3 4 5 -6 7 8 0
-1 -2 3 4 -5 -6 7 -8 0
-1 2 -3 4 -5 -6 7 8 0
1 -2 -3 4 -5 6 7 8 0
1 -2 3 -4 -5 6 7 8 0
-1 -2 -3 -4 5 6 -7 8 0
1 -2 -3 -4 -5 -6 7 8 0
-1 2 -3 4 -5 6 -7 8 0
-1 2 3 -4 -5 -6 7 -8 0
1 2 -3 4 -5 6 -7 8 0
1 -2 3 4 -5 6 7 -8 0
1 -2 -3 -4 5 6 -7 -8 0
-1 -2 -3 4 -5 6 7 -8 0
-1 2 3 4 5 6 7 -8 0
-1 -2 3 4 -5 6 -7 8 0
1 -2 3 4 5 6 -7 -8 0
-1 2 3 4 5 -6 -7 -8 0
1 -2 3 4 5 6 -7 8 0
1 2 3 4 5 -6 -7 8 0
1 -2 -3 4 5 6 7 8 0
1 2 3 4 -5 -6 7 -8 0
1 -2 3 -4 5 6 -7 8 0
1 -2 3 -4 -5 -6 -7 8 0
-1 -2 -3 4 -5 -6 7 -8 0
1 2 3 4 -5 6 7 8 0
-1 2 3 4 5 -6 7 -8 0
-1 -2 -3 4 -5 -6 -7 8 0
1 -2 -3 -4 5 6 7 8 0
-1 2 3 -4 -5 -6 -7 8 0
1 2 3 -4 -5 -6 -7 -8 0
-1 2 3 -4 -5 6 -7 -8 0
-1 2 -3 -4 -5 6 -7 8 0
1 2 -3 -4 5 -6 -7 -8 0
-1 2 3 -4 5 -6 7 -8 0
-1 -2 -3 -4 -5 6 -7 8 0
-1 2 -3 4 5 -6 -7 8 0
-1 -2 -3 -4 5 -6 7 -8 0
-1 2 -3 -4 5 -6 7 -8 0
-1 -2 3 -4 5 6 7 8 0
-1 -2 -3 -4 -5 -6 -7 -8 0
-1 2 -3 -4 -5 -6 7 8 0
1 2 -3 4 -5 -6 -7 -8 0
-1 2 -3 -4 -5 6 7 8 0
-1 -2 -3 4 5 6 -7 -8 0
-1 -2 -3 4 5 6 7 8 0
1 2 3 -4 -5 6 -7 8 0
-1 2 3 -4 -5 6 7 -8 0
1 2 3 4 -5 6 -7 8 0
1 -2 3 -4 5 -6 -7 8 0
1 2 -3 -4 -5 6 -7 -8 0
1 -2 3 4 -5 -6 -7 -8 0
-1 2 3 4 -5 -6 7 -8 0
1 -2 3 -4 -5 -6 7 8 0
1 2 -3 4 5 -6 -7 -8 0
-1 2 -3 4 -5 -6 -7 8 0
1 -2 -3 -4 5 -6 -7 8 0
1 2 -3 4 -5 6 7 8 0
1 2 3 -4 5 -6 7 -8 0
-1 -2 -3 4 -5 6 -7 -8 0
1 -2 -3 4 -5 -6 7 -8 0
-1 2 -3 -4 -5 -6 -7 8 0
-1 2 -3 4 5 6 7 -8 0
1 -2 3 -4 -5 -6 -7 -8 0
-1 2 -3 4 5 6 7 8 0
-1 2 3 -4 -5 6 -7 8 0
1 -2 3 -4 5 6 7 -8 0
-1 2 -3 -4 5 6 -7 -8 0
-1 2 -3 4 5 6 -7 -8 0
-1 -2 -3 4 5 6 7 -8 0
1 2 3 -4 -5 -6 7 -8 0
-1 -2 -3 4 -5 6 7 8 0
1 2 -3 4 5 -6 7 8 0
-1 -2 3 -4 5 6 -7 8 0
-1 -2 3 -4 -5 6 7 8 0
-1 2 3 -4 -5 6 7 8 0
-1 -2 3 4 -5 6 -7 -8 0
1 2 3 4 5 -6 7 -8 0
-1 -2 3 4 -5 6 7 -8 0
-1 -2 -3 4 5 6 -7 8 0
1 2 -3 4 -5 -6 -7 8 0
-1 2 3 4 5 6 7 8 0
1 2 3 4 -5 -6 -7 8 0
1 -2 3 4 -5 6 -7 -8 0
-1 -2 -3 -4 5 -6 -7 8 0
1 -2 -3 -4 -5 -6 7 -8 0
-1 2 3 -4 -5 -6 7 8 0
1 -2 3 4 -5 6 -7 8 0
-1 2 -3 4 -5 -6 -7 -8 0
-1 -2 3 -4 -5 -6 7 8 0
1 -2 -3 4 -5 6 7 -8 0
1 2 3 -4 -5 6 -7 -8 0
-1 -2 -3 -4 5 6 -7 -8 0
1 -2 -3 -4 -5 -6 -7 -8 0
1 2 3 4 -5 6 7 -8 0
-1 2 -3 4 -5 -6 7 -8 0
-1 2 3 4 -5 6 7 -8 0
1 -2 -3 -4 -5 6 7 -8 0
-1 2 -3 -4 5 -6 7 8 0
-1 2 3 -4 5 6 -7 -8 0
-1 -2 3 -4 -5 6 7 -8 0
-1 -2 3 4 5 -6 7 -8 0
1 -2 3 -4 -5 -6 7 -8 0
-1 -2 -3 4 5 -6 -7 -8 0
1 -2 3 4 5 6 7 8 0
-1 -2 3 4 -5 -6 7 8 0
-1 -2 3 4 5 6 7 -8 0
1 2 -3 4 5 6 -7 8 0
-1 -2 -3 -4 5 -6 7 8 0
-1 2 -3 -4 5 6 7 8 0
1 2 3 -4 -5 -6 7 8 0
1 -2 3 -4 5 6 -7 -8 0
-1 -2 3 4 5 6 -7 8 0
-1 2 3 -4 5 6 7 8 0
1 -2 3 4 -5 -6 -7 8 0
1 -2 -3 4 -5 6 -7 -8 0
-1 -2 -3 -4 -5 -6 7 8 0
1 2 -3 -4 5 6 -7 -8 0
1 -2 3 -4 5 -6 -7 -8 0
1 2 3 4 -5 -6 7 8 0
1 2 3 -4 -5 6 7 8 0
1 -2 3 4 5 -6 7 8 0
-1 2 3 -4 5 -6 7 8 0
-1 -2 3 4 -5 6 7 8 0
1 -2 3 -4 5 -6 7 8 0
-1 -2 -3 4 -5 6 -7 8 0
1 2 -3 -4 5 -6 -7 8 0
